80 80
14 45 1
71 82 1
100 71 1
16 4 1
63 100 1
61 52 1
54 81 1
12 86 1
74 66 1
14 90 1
72 53 1
68 67 1
98 94 1
77 78 1
1 38 1
38 77 1
82 84 1
51 83 1
91 83 1
19 28 1
78 85 1
92 50 1
94 91 1
12 66 1
86 99 1
87 79 1
57 59 1
65 85 1
55 73 1
97 69 1
83 90 1
81 81 1
87 59 1
69 70 1
20 88 1
59 89 1
80 57 1
52 84 1
68 86 1
99 57 1
85 67 1
98 59 1
79 51 1
49 39 1
51 89 1
53 97 1
51 79 1
61 82 1
29 23 1
72 95 1
85 68 1
91 36 1
69 67 1
52 54 1
80 68 1
22 67 1
70 73 1
94 77 1
88 81 1
69 80 1
83 92 1
98 60 1
56 54 1
78 69 1
57 71 1
62 55 1
91 41 1
100 70 1
44 13 1
40 13 1
79 88 1
88 33 1
92 65 1
28 31 1
83 97 1
76 57 1
51 81 1
78 61 1
99 67 1
82 93 1
100 100 
100 100 
100 100 
100 100 
100 100 
100 100 
100 100 
100 100 
100 100 
100 100 
100 100 
100 100 
100 100 
100 100 
100 100 
100 100 
100 100 
100 100 
100 100 
100 100 
100 100 
100 100 
100 100 
100 100 
100 100 
100 100 
100 100 
100 100 
100 100 
100 100 
100 100 
100 100 
100 100 
100 100 
100 100 
100 100 
100 100 
100 100 
100 100 
100 100 
100 100 
100 100 
100 100 
100 100 
100 100 
100 100 
100 100 
100 100 
100 100 
100 100 
100 100 
100 100 
100 100 
100 100 
100 100 
100 100 
100 100 
100 100 
100 100 
100 100 
100 100 
100 100 
100 100 
100 100 
100 100 
100 100 
100 100 
100 100 
100 100 
100 100 
100 100 
100 100 
100 100 
100 100 
100 100 
100 100 
100 100 
100 100 
100 100 
100 100 
